time_horizon = 12;
num_of_generators = 5;
num_of_loads = 5;
% classic coal (medium), large PV, extra large PV, off-shore wind, nuclear (old,classic)
% with temp. loss of wind, temp. loss of solar
gen_max = [|500, 500,500, 500,500, 500,500, 500,500, 500,500, 500,
         |  0,   0,  0,   0,  0,  20, 40, 100,200, 500,1000, 1000,
         |  0,   0,  0,   0,  0,  40, 80, 200,400, 1000,2000, 2000,
         |200, 300,300, 200,100,  50,  0,   0, 10,  300, 200,  100,
         |1000,1000,1000,1000,1000,1000,1000,1000,1000,1000,1000,1000|];

dispatch_cost = [| 95,  95,  95,  95, 95,  95,  95,  95, 95,  95,  95,  95, 
                 |0, 0, 0, 0, 0, 0, 0, 0, 0, 0, 0, 0,
                 |0, 0, 0, 0, 0, 0, 0, 0, 0, 0, 0, 0,
                 |0, 0, 0, 0, 0, 0, 0, 0, 0, 0, 0, 0,
                 |50,50,50,50,50,50,50,50,50,50,50,50|];              
                    
                                        
gen_min = [| 250, 250, 250, 250,  250, 250, 250, 250,  250, 250, 250, 250,
         | 1, 1, 1, 1, 1, 1, 1, 1, 1, 1, 1, 1,
         | 1, 1, 1, 1, 1, 1, 1, 1, 1, 1, 1, 1,
         | 1, 1, 1, 1, 1, 1, 1, 1, 1, 1, 1, 1,
         |200,200,200,200,200,200,200,200,200,200,200,200|];       
% oil (small), classic coal (small), classic coal (medium), large PV, extra large PV, city wind, off-shore wind, hydro (small), hydro (large), nuclear (old,classic)
init_commitment = [1, 0, 0, 1, 1];
                 
startup_cost = [200, 0, 0, 0, 20000];

shutdown_cost = [200, 0, 0, 0, 10000];    

max_ramp_rate = [200, 9999, 9999, 9999, 200];
%max_ramp_rate = [9999, 9999, 9999, 9999, 9999];

demand  = [|10, 10, 10, 10,  10, 10, 20, 50, 50, 60, 90, 120,
      |10, 10, 10, 10,  10, 10, 20, 50, 50, 60, 90, 120,
      |15, 20, 20, 20,  20, 15, 40,100,100,120,180, 240,
      |200,200,200,200,200,200,200,200,200,200,200,200,
      |400,400,200,100,  0,  0,  0,  0,400,400,200,100|]; 
      
      
shed_cost = [100000, 100000, 100000, 2000, 1000];


min_down = [0, 0, 0, 0, 0];

max_num_start = [9999, 9999, 9999, 9999, 9999];